0 4920
2401 4740
4802 4655
7203 4552
9604 4485
12005 4431
14406 4391
16807 4364
19208 4313
21609 4299
24010 4271
26411 4252
28812 4223
31213 4209
33614 4199
36015 4190
38416 4172
40817 4163
43218 4147
45619 4118
48020 4098
50421 4090
52822 4077
55223 4064
57624 4049
60025 4045
62426 4041
64827 4038
67228 4033
69629 4030
74431 4023
76832 4021
148862 4019
151263 4015
153664 4012
156065 4011
213689 4008
216090 4007
223293 4005
225694 3988
228095 3987
230496 3983
232897 3981
235298 3976
487403 3970
